clingo version 5.6.2
Reading from ...c_projection/basic_projection-facts.lp ...
Solving...
Answer: 1
data(c,d,d) data(a,e,f) data(a,b,c) data(b,b,d) a(c,d) a(a,f) a(a,c) a(b,d) b(d,c) b(f,a) b(c,a) b(d,b) c(c) c(a) c(b) d(d,d) d(e,f) d(b,c) d(b,d) e(d,d) e(f,e) e(c,b) e(d,b)
SATISFIABLE

Models       : 1
Calls        : 1
Time         : 0.001s (Solving: 0.00s 1st Model: 0.00s Unsat: 0.00s)
CPU Time     : 0.000s
